NAME : cgl_48b.5556.tour
COMMENT : Length = 5556
COMMENT : Found by LKH-3 [Keld Helsgaun] Fri Nov  8 19:20:30 2024
TYPE : TOUR
DIMENSION : 48
TOUR_SECTION
42
44
45
43
46
32
31
30
29
28
47
48
1
2
3
34
38
36
35
37
39
40
33
41
5
7
6
4
8
9
10
11
16
14
15
18
17
20
19
21
23
24
22
13
12
25
26
27
-1
EOF
